certificates/rado_a13_c202_N51.cnf
c Rad2 upper bound instance: x1 + 13*x2 - x3 = 202, interval [1,51]
p cnf 51 398
1 7 16 0
-1 -7 -16 0
1 17 20 0
-1 -17 -20 0
1 18 33 0
-1 -18 -33 0
1 19 46 0
-1 -19 -46 0
2 8 16 0
-2 -8 -16 0
2 17 21 0
-2 -17 -21 0
2 18 34 0
-2 -18 -34 0
2 19 47 0
-2 -19 -47 0
3 9 16 0
-3 -9 -16 0
3 17 22 0
-3 -17 -22 0
3 18 35 0
-3 -18 -35 0
3 19 48 0
-3 -19 -48 0
4 10 16 0
-4 -10 -16 0
4 17 23 0
-4 -17 -23 0
4 18 36 0
-4 -18 -36 0
4 19 49 0
-4 -19 -49 0
5 11 16 0
-5 -11 -16 0
5 17 24 0
-5 -17 -24 0
5 18 37 0
-5 -18 -37 0
5 19 50 0
-5 -19 -50 0
6 12 16 0
-6 -12 -16 0
6 17 25 0
-6 -17 -25 0
6 18 38 0
-6 -18 -38 0
6 19 51 0
-6 -19 -51 0
7 13 16 0
-7 -13 -16 0
7 17 26 0
-7 -17 -26 0
7 18 39 0
-7 -18 -39 0
1 8 15 0
-1 -8 -15 0
8 14 16 0
-8 -14 -16 0
8 17 27 0
-8 -17 -27 0
8 18 40 0
-8 -18 -40 0
2 9 15 0
-2 -9 -15 0
9 15 16 0
-9 -15 -16 0
9 17 28 0
-9 -17 -28 0
9 18 41 0
-9 -18 -41 0
3 10 15 0
-3 -10 -15 0
10 16 0
-10 -16 0
10 17 29 0
-10 -17 -29 0
10 18 42 0
-10 -18 -42 0
4 11 15 0
-4 -11 -15 0
11 16 17 0
-11 -16 -17 0
11 17 30 0
-11 -17 -30 0
11 18 43 0
-11 -18 -43 0
5 12 15 0
-5 -12 -15 0
12 16 18 0
-12 -16 -18 0
12 17 31 0
-12 -17 -31 0
12 18 44 0
-12 -18 -44 0
6 13 15 0
-6 -13 -15 0
13 16 19 0
-13 -16 -19 0
13 17 32 0
-13 -17 -32 0
13 18 45 0
-13 -18 -45 0
7 14 15 0
-7 -14 -15 0
14 16 20 0
-14 -16 -20 0
14 17 33 0
-14 -17 -33 0
14 18 46 0
-14 -18 -46 0
8 15 0
-8 -15 0
15 16 21 0
-15 -16 -21 0
15 17 34 0
-15 -17 -34 0
15 18 47 0
-15 -18 -47 0
16 22 0
-16 -22 0
16 17 35 0
-16 -17 -35 0
16 18 48 0
-16 -18 -48 0
10 15 17 0
-10 -15 -17 0
16 17 23 0
-16 -17 -23 0
17 36 0
-17 -36 0
17 18 49 0
-17 -18 -49 0
11 15 18 0
-11 -15 -18 0
16 18 24 0
-16 -18 -24 0
17 18 37 0
-17 -18 -37 0
18 50 0
-18 -50 0
12 15 19 0
-12 -15 -19 0
16 19 25 0
-16 -19 -25 0
17 19 38 0
-17 -19 -38 0
18 19 51 0
-18 -19 -51 0
13 15 20 0
-13 -15 -20 0
16 20 26 0
-16 -20 -26 0
17 20 39 0
-17 -20 -39 0
1 14 21 0
-1 -14 -21 0
14 15 21 0
-14 -15 -21 0
16 21 27 0
-16 -21 -27 0
17 21 40 0
-17 -21 -40 0
2 14 22 0
-2 -14 -22 0
15 22 0
-15 -22 0
16 22 28 0
-16 -22 -28 0
17 22 41 0
-17 -22 -41 0
3 14 23 0
-3 -14 -23 0
15 16 23 0
-15 -16 -23 0
16 23 29 0
-16 -23 -29 0
17 23 42 0
-17 -23 -42 0
4 14 24 0
-4 -14 -24 0
15 17 24 0
-15 -17 -24 0
16 24 30 0
-16 -24 -30 0
17 24 43 0
-17 -24 -43 0
5 14 25 0
-5 -14 -25 0
15 18 25 0
-15 -18 -25 0
16 25 31 0
-16 -25 -31 0
17 25 44 0
-17 -25 -44 0
6 14 26 0
-6 -14 -26 0
15 19 26 0
-15 -19 -26 0
16 26 32 0
-16 -26 -32 0
17 26 45 0
-17 -26 -45 0
7 14 27 0
-7 -14 -27 0
15 20 27 0
-15 -20 -27 0
16 27 33 0
-16 -27 -33 0
17 27 46 0
-17 -27 -46 0
8 14 28 0
-8 -14 -28 0
15 21 28 0
-15 -21 -28 0
16 28 34 0
-16 -28 -34 0
17 28 47 0
-17 -28 -47 0
9 14 29 0
-9 -14 -29 0
15 22 29 0
-15 -22 -29 0
16 29 35 0
-16 -29 -35 0
17 29 48 0
-17 -29 -48 0
10 14 30 0
-10 -14 -30 0
15 23 30 0
-15 -23 -30 0
16 30 36 0
-16 -30 -36 0
17 30 49 0
-17 -30 -49 0
11 14 31 0
-11 -14 -31 0
15 24 31 0
-15 -24 -31 0
16 31 37 0
-16 -31 -37 0
17 31 50 0
-17 -31 -50 0
12 14 32 0
-12 -14 -32 0
15 25 32 0
-15 -25 -32 0
16 32 38 0
-16 -32 -38 0
17 32 51 0
-17 -32 -51 0
13 14 33 0
-13 -14 -33 0
15 26 33 0
-15 -26 -33 0
16 33 39 0
-16 -33 -39 0
1 13 34 0
-1 -13 -34 0
14 34 0
-14 -34 0
15 27 34 0
-15 -27 -34 0
16 34 40 0
-16 -34 -40 0
2 13 35 0
-2 -13 -35 0
14 15 35 0
-14 -15 -35 0
15 28 35 0
-15 -28 -35 0
16 35 41 0
-16 -35 -41 0
3 13 36 0
-3 -13 -36 0
14 16 36 0
-14 -16 -36 0
15 29 36 0
-15 -29 -36 0
16 36 42 0
-16 -36 -42 0
4 13 37 0
-4 -13 -37 0
14 17 37 0
-14 -17 -37 0
15 30 37 0
-15 -30 -37 0
16 37 43 0
-16 -37 -43 0
5 13 38 0
-5 -13 -38 0
14 18 38 0
-14 -18 -38 0
15 31 38 0
-15 -31 -38 0
16 38 44 0
-16 -38 -44 0
6 13 39 0
-6 -13 -39 0
14 19 39 0
-14 -19 -39 0
15 32 39 0
-15 -32 -39 0
16 39 45 0
-16 -39 -45 0
7 13 40 0
-7 -13 -40 0
14 20 40 0
-14 -20 -40 0
15 33 40 0
-15 -33 -40 0
16 40 46 0
-16 -40 -46 0
8 13 41 0
-8 -13 -41 0
14 21 41 0
-14 -21 -41 0
15 34 41 0
-15 -34 -41 0
16 41 47 0
-16 -41 -47 0
9 13 42 0
-9 -13 -42 0
14 22 42 0
-14 -22 -42 0
15 35 42 0
-15 -35 -42 0
16 42 48 0
-16 -42 -48 0
10 13 43 0
-10 -13 -43 0
14 23 43 0
-14 -23 -43 0
15 36 43 0
-15 -36 -43 0
16 43 49 0
-16 -43 -49 0
11 13 44 0
-11 -13 -44 0
14 24 44 0
-14 -24 -44 0
15 37 44 0
-15 -37 -44 0
16 44 50 0
-16 -44 -50 0
12 13 45 0
-12 -13 -45 0
14 25 45 0
-14 -25 -45 0
15 38 45 0
-15 -38 -45 0
16 45 51 0
-16 -45 -51 0
13 46 0
-13 -46 0
14 26 46 0
-14 -26 -46 0
15 39 46 0
-15 -39 -46 0
1 12 47 0
-1 -12 -47 0
13 14 47 0
-13 -14 -47 0
14 27 47 0
-14 -27 -47 0
15 40 47 0
-15 -40 -47 0
2 12 48 0
-2 -12 -48 0
13 15 48 0
-13 -15 -48 0
14 28 48 0
-14 -28 -48 0
15 41 48 0
-15 -41 -48 0
3 12 49 0
-3 -12 -49 0
13 16 49 0
-13 -16 -49 0
14 29 49 0
-14 -29 -49 0
15 42 49 0
-15 -42 -49 0
4 12 50 0
-4 -12 -50 0
13 17 50 0
-13 -17 -50 0
14 30 50 0
-14 -30 -50 0
15 43 50 0
-15 -43 -50 0
5 12 51 0
-5 -12 -51 0
13 18 51 0
-13 -18 -51 0
14 31 51 0
-14 -31 -51 0
15 44 51 0
-15 -44 -51 0
