certificates/rado_a13_c202_N51.drat
13 18 -51 0
16 -14 18 0
-50 -51 0
-51 0
-46 50 0
-13 -18 0
d -45 -13 -18 0
50 0
-18 0
19 0
13 0
-5 0
-16 0
-46 0
-17 0
12 0
37 0
11 0
10 0
22 0
45 0
40 0
48 0
24 0
-14 0
8 0
20 0
36 0
0
